param n := 120;
param c := 1500
param : V : p w :=
   0	  52	  42
   1	  79	  69
   2	  77	  67
   3	  67	  57
   4	 103	  93
   5	 100	  90
   6	  48	  38
   7	  46	  36
   8	  55	  45
   9	  52	  42
  10	  43	  33
  11	  89	  79
  12	  37	  27
  13	  67	  57
  14	  54	  44
  15	  94	  84
  16	  96	  86
  17	 102	  92
  18	  56	  46
  19	  48	  38
  20	  95	  85
  21	  43	  33
  22	  92	  82
  23	  83	  73
  24	  59	  49
  25	  80	  70
  26	  69	  59
  27	  33	  23
  28	  67	  57
  29	  82	  72
  30	  84	  74
  31	  79	  69
  32	  43	  33
  33	  52	  42
  34	  38	  28
  35	  56	  46
  36	  40	  30
  37	  74	  64
  38	  39	  29
  39	  84	  74
  40	  51	  41
  41	  59	  49
  42	  65	  55
  43	 108	  98
  44	  90	  80
  45	  42	  32
  46	  35	  25
  47	  48	  38
  48	  92	  82
  49	  40	  30
  50	  45	  35
  51	  49	  39
  52	  67	  57
  53	  94	  84
  54	  72	  62
  55	  60	  50
  56	  65	  55
  57	  37	  27
  58	  40	  30
  59	  46	  36
  60	  30	  20
  61	  88	  78
  62	  57	  47
  63	  36	  26
  64	  55	  45
  65	  51	  41
  66	  68	  58
  67	 108	  98
  68	 101	  91
  69	 106	  96
  70	  83	  73
  71	  94	  84
  72	  47	  37
  73	 103	  93
  74	 101	  91
  75	  53	  43
  76	  83	  73
  77	  95	  85
  78	  91	  81
  79	  89	  79
  80	  81	  71
  81	  90	  80
  82	  86	  76
  83	  93	  83
  84	  51	  41
  85	  88	  78
  86	  80	  70
  87	  33	  23
  88	  52	  42
  89	  97	  87
  90	  53	  43
  91	  94	  84
  92	  70	  60
  93	  65	  55
  94	  59	  49
  95	  88	  78
  96	  83	  73
  97	  72	  62
  98	  46	  36
  99	  54	  44
 100	 104	  94
 101	  79	  69
 102	  42	  32
 103	 106	  96
 104	  80	  70
 105	  94	  84
 106	  68	  58
 107	  88	  78
 108	  35	  25
 109	  90	  80
 110	  68	  58
 111	  76	  66
 112	  93	  83
 113	  34	  24
 114	 108	  98
 115	  70	  60
 116	  52	  42
 117	  53	  43
 118	  53	  43
 119	  49	  39
;

set E :=
   0	   2
   0	   3
   0	   6
   0	  11
   0	  12
   0	  15
   0	  17
   0	  18
   0	  24
   0	  26
   0	  30
   0	  33
   0	  37
   0	  39
   0	  40
   0	  41
   0	  44
   0	  53
   0	  54
   0	  57
   0	  63
   0	  65
   0	  66
   0	  68
   0	  70
   0	  72
   0	  73
   0	  74
   0	  76
   0	  77
   0	  79
   0	  81
   0	  83
   0	  86
   0	  88
   0	  89
   0	  90
   0	  92
   0	  93
   0	  97
   0	 100
   0	 101
   0	 103
   0	 108
   0	 109
   0	 113
   0	 117
   1	   3
   1	   6
   1	   8
   1	   9
   1	  15
   1	  19
   1	  21
   1	  23
   1	  24
   1	  25
   1	  27
   1	  28
   1	  31
   1	  40
   1	  42
   1	  43
   1	  47
   1	  49
   1	  54
   1	  56
   1	  60
   1	  61
   1	  66
   1	  67
   1	  74
   1	  77
   1	  79
   1	  81
   1	  82
   1	  83
   1	  84
   1	  86
   1	  87
   1	  91
   1	  97
   1	 100
   1	 101
   1	 102
   1	 105
   1	 107
   1	 108
   1	 111
   1	 113
   1	 114
   1	 116
   1	 118
   2	   4
   2	   5
   2	   8
   2	  10
   2	  11
   2	  14
   2	  19
   2	  27
   2	  30
   2	  33
   2	  35
   2	  36
   2	  39
   2	  40
   2	  41
   2	  43
   2	  44
   2	  45
   2	  47
   2	  48
   2	  49
   2	  51
   2	  52
   2	  53
   2	  55
   2	  60
   2	  62
   2	  63
   2	  64
   2	  66
   2	  74
   2	  76
   2	  78
   2	  85
   2	  89
   2	 101
   2	 103
   2	 105
   2	 108
   2	 113
   2	 116
   2	 118
   3	   5
   3	  10
   3	  17
   3	  22
   3	  23
   3	  29
   3	  31
   3	  32
   3	  33
   3	  36
   3	  40
   3	  41
   3	  43
   3	  47
   3	  52
   3	  53
   3	  57
   3	  58
   3	  61
   3	  62
   3	  64
   3	  65
   3	  66
   3	  74
   3	  75
   3	  76
   3	  79
   3	  81
   3	  86
   3	  88
   3	 108
   3	 109
   3	 110
   3	 111
   3	 113
   3	 115
   4	   6
   4	   9
   4	  11
   4	  13
   4	  14
   4	  15
   4	  19
   4	  20
   4	  21
   4	  23
   4	  25
   4	  26
   4	  27
   4	  28
   4	  33
   4	  35
   4	  37
   4	  38
   4	  39
   4	  45
   4	  49
   4	  51
   4	  55
   4	  57
   4	  58
   4	  59
   4	  63
   4	  64
   4	  65
   4	  68
   4	  70
   4	  74
   4	  85
   4	  90
   4	  94
   4	  95
   4	  97
   4	 100
   4	 101
   4	 102
   4	 105
   4	 107
   4	 109
   4	 110
   4	 113
   4	 114
   4	 117
   5	   6
   5	   7
   5	   8
   5	   9
   5	  10
   5	  12
   5	  14
   5	  16
   5	  18
   5	  20
   5	  23
   5	  24
   5	  25
   5	  32
   5	  33
   5	  34
   5	  35
   5	  40
   5	  43
   5	  46
   5	  50
   5	  51
   5	  53
   5	  55
   5	  58
   5	  59
   5	  60
   5	  63
   5	  64
   5	  65
   5	  66
   5	  69
   5	  74
   5	  75
   5	  78
   5	  79
   5	  80
   5	  81
   5	  82
   5	  84
   5	  86
   5	  91
   5	  92
   5	  96
   5	  98
   5	  99
   5	 101
   5	 103
   5	 104
   5	 105
   5	 107
   5	 110
   5	 111
   5	 116
   5	 117
   5	 118
   5	 119
   6	  11
   6	  12
   6	  14
   6	  17
   6	  19
   6	  20
   6	  21
   6	  23
   6	  25
   6	  30
   6	  31
   6	  34
   6	  41
   6	  42
   6	  46
   6	  51
   6	  53
   6	  56
   6	  64
   6	  68
   6	  71
   6	  72
   6	  73
   6	  74
   6	  75
   6	  77
   6	  79
   6	  84
   6	  85
   6	  86
   6	  88
   6	  90
   6	  93
   6	  98
   6	 104
   6	 105
   6	 107
   6	 108
   6	 109
   6	 110
   6	 112
   6	 113
   6	 114
   6	 115
   6	 118
   6	 119
   7	   9
   7	  14
   7	  15
   7	  16
   7	  19
   7	  21
   7	  28
   7	  40
   7	  43
   7	  44
   7	  47
   7	  49
   7	  51
   7	  56
   7	  61
   7	  62
   7	  65
   7	  68
   7	  72
   7	  73
   7	  77
   7	  79
   7	  80
   7	  83
   7	  85
   7	  86
   7	  88
   7	  91
   7	  94
   7	  95
   7	  96
   7	  99
   7	 104
   7	 105
   7	 106
   7	 107
   7	 108
   7	 109
   7	 112
   7	 114
   7	 115
   7	 117
   7	 118
   7	 119
   8	  11
   8	  12
   8	  13
   8	  19
   8	  20
   8	  21
   8	  22
   8	  24
   8	  32
   8	  35
   8	  36
   8	  37
   8	  38
   8	  39
   8	  41
   8	  42
   8	  44
   8	  49
   8	  52
   8	  53
   8	  54
   8	  55
   8	  57
   8	  66
   8	  67
   8	  72
   8	  74
   8	  75
   8	  76
   8	  79
   8	  80
   8	  88
   8	  91
   8	  92
   8	  93
   8	  94
   8	  98
   8	  99
   8	 103
   8	 105
   8	 108
   8	 111
   8	 112
   8	 113
   8	 115
   8	 116
   8	 117
   9	  11
   9	  14
   9	  15
   9	  19
   9	  24
   9	  27
   9	  29
   9	  30
   9	  31
   9	  32
   9	  34
   9	  36
   9	  37
   9	  38
   9	  41
   9	  42
   9	  43
   9	  44
   9	  46
   9	  49
   9	  52
   9	  53
   9	  56
   9	  61
   9	  63
   9	  65
   9	  66
   9	  67
   9	  70
   9	  73
   9	  74
   9	  75
   9	  80
   9	  82
   9	  84
   9	  87
   9	  88
   9	  91
   9	  93
   9	  94
   9	  96
   9	  98
   9	  99
   9	 105
   9	 106
   9	 108
   9	 109
   9	 110
   9	 111
   9	 112
   9	 117
  10	  12
  10	  13
  10	  17
  10	  24
  10	  31
  10	  32
  10	  35
  10	  36
  10	  37
  10	  43
  10	  44
  10	  45
  10	  47
  10	  48
  10	  49
  10	  50
  10	  59
  10	  60
  10	  69
  10	  72
  10	  74
  10	  75
  10	  77
  10	  80
  10	  83
  10	  84
  10	  88
  10	  89
  10	  90
  10	  93
  10	  94
  10	  96
  10	  98
  10	 101
  10	 105
  10	 107
  10	 109
  10	 113
  10	 115
  10	 117
  11	  13
  11	  14
  11	  18
  11	  22
  11	  25
  11	  29
  11	  31
  11	  32
  11	  34
  11	  37
  11	  39
  11	  40
  11	  42
  11	  44
  11	  45
  11	  46
  11	  47
  11	  51
  11	  53
  11	  54
  11	  55
  11	  58
  11	  63
  11	  64
  11	  65
  11	  70
  11	  73
  11	  75
  11	  78
  11	  80
  11	  82
  11	  83
  11	  86
  11	  87
  11	  88
  11	  90
  11	  91
  11	  92
  11	  93
  11	 102
  11	 104
  11	 105
  11	 106
  11	 108
  11	 114
  11	 117
  11	 119
  12	  16
  12	  17
  12	  21
  12	  23
  12	  26
  12	  27
  12	  30
  12	  31
  12	  35
  12	  36
  12	  37
  12	  39
  12	  44
  12	  46
  12	  47
  12	  49
  12	  50
  12	  51
  12	  60
  12	  61
  12	  63
  12	  66
  12	  68
  12	  69
  12	  70
  12	  73
  12	  74
  12	  76
  12	  79
  12	  80
  12	  82
  12	  85
  12	  86
  12	  89
  12	  90
  12	  91
  12	  93
  12	  94
  12	  95
  12	  96
  12	  97
  12	 102
  12	 105
  12	 107
  12	 108
  12	 109
  12	 110
  12	 112
  12	 113
  12	 114
  12	 119
  13	  16
  13	  23
  13	  29
  13	  31
  13	  33
  13	  36
  13	  37
  13	  39
  13	  41
  13	  42
  13	  43
  13	  49
  13	  53
  13	  54
  13	  55
  13	  58
  13	  60
  13	  62
  13	  63
  13	  64
  13	  66
  13	  68
  13	  71
  13	  72
  13	  76
  13	  78
  13	  81
  13	  83
  13	  85
  13	  86
  13	  89
  13	  91
  13	  92
  13	  93
  13	  99
  13	 103
  13	 106
  13	 108
  13	 109
  13	 110
  13	 112
  13	 114
  13	 116
  13	 118
  13	 119
  14	  17
  14	  19
  14	  21
  14	  22
  14	  23
  14	  30
  14	  32
  14	  37
  14	  38
  14	  40
  14	  41
  14	  44
  14	  46
  14	  48
  14	  49
  14	  52
  14	  55
  14	  70
  14	  71
  14	  72
  14	  75
  14	  76
  14	  79
  14	  84
  14	  85
  14	  87
  14	  91
  14	  92
  14	  98
  14	 102
  14	 103
  14	 106
  14	 109
  14	 110
  14	 111
  14	 113
  14	 116
  14	 117
  14	 118
  15	  16
  15	  17
  15	  19
  15	  20
  15	  22
  15	  23
  15	  25
  15	  27
  15	  29
  15	  34
  15	  41
  15	  46
  15	  47
  15	  49
  15	  50
  15	  53
  15	  59
  15	  64
  15	  65
  15	  66
  15	  70
  15	  74
  15	  82
  15	  84
  15	  86
  15	  88
  15	  90
  15	  91
  15	  95
  15	  96
  15	  97
  15	  98
  15	  99
  15	 100
  15	 103
  15	 109
  15	 112
  15	 114
  15	 116
  15	 117
  15	 118
  15	 119
  16	  21
  16	  23
  16	  25
  16	  26
  16	  32
  16	  36
  16	  39
  16	  40
  16	  43
  16	  45
  16	  48
  16	  49
  16	  52
  16	  53
  16	  54
  16	  56
  16	  59
  16	  60
  16	  61
  16	  62
  16	  63
  16	  64
  16	  65
  16	  66
  16	  70
  16	  71
  16	  72
  16	  73
  16	  75
  16	  77
  16	  78
  16	  79
  16	  86
  16	  92
  16	  93
  16	  94
  16	  95
  16	  96
  16	  97
  16	  99
  16	 102
  16	 103
  16	 105
  16	 107
  16	 113
  16	 114
  16	 115
  16	 117
  16	 119
  17	  20
  17	  21
  17	  23
  17	  30
  17	  33
  17	  34
  17	  35
  17	  36
  17	  37
  17	  38
  17	  39
  17	  42
  17	  46
  17	  51
  17	  52
  17	  54
  17	  59
  17	  61
  17	  65
  17	  66
  17	  67
  17	  68
  17	  69
  17	  70
  17	  71
  17	  72
  17	  73
  17	  76
  17	  84
  17	  87
  17	  88
  17	  92
  17	  94
  17	  95
  17	  97
  17	  98
  17	 100
  17	 103
  17	 104
  17	 106
  17	 108
  17	 111
  17	 114
  17	 115
  17	 119
  18	  19
  18	  20
  18	  26
  18	  29
  18	  30
  18	  36
  18	  40
  18	  41
  18	  42
  18	  43
  18	  45
  18	  47
  18	  48
  18	  49
  18	  50
  18	  51
  18	  55
  18	  57
  18	  59
  18	  64
  18	  69
  18	  71
  18	  72
  18	  74
  18	  75
  18	  77
  18	  87
  18	  88
  18	  92
  18	  93
  18	 100
  18	 107
  18	 111
  18	 116
  18	 117
  19	  22
  19	  23
  19	  24
  19	  26
  19	  28
  19	  29
  19	  30
  19	  34
  19	  36
  19	  38
  19	  41
  19	  43
  19	  45
  19	  54
  19	  60
  19	  62
  19	  63
  19	  65
  19	  66
  19	  68
  19	  72
  19	  76
  19	  77
  19	  80
  19	  83
  19	  84
  19	  85
  19	  88
  19	  89
  19	  90
  19	  92
  19	  93
  19	  95
  19	  97
  19	  98
  19	 100
  19	 102
  19	 104
  19	 105
  19	 106
  19	 107
  19	 108
  19	 111
  19	 113
  19	 115
  19	 117
  19	 119
  20	  22
  20	  23
  20	  24
  20	  30
  20	  31
  20	  36
  20	  38
  20	  46
  20	  47
  20	  49
  20	  51
  20	  54
  20	  57
  20	  61
  20	  63
  20	  64
  20	  65
  20	  68
  20	  71
  20	  73
  20	  75
  20	  77
  20	  81
  20	  85
  20	  87
  20	  88
  20	  90
  20	  92
  20	  93
  20	  99
  20	 100
  20	 102
  20	 103
  20	 107
  20	 112
  20	 114
  20	 119
  21	  23
  21	  24
  21	  25
  21	  29
  21	  35
  21	  37
  21	  39
  21	  40
  21	  42
  21	  43
  21	  46
  21	  50
  21	  51
  21	  52
  21	  54
  21	  60
  21	  61
  21	  62
  21	  69
  21	  70
  21	  72
  21	  78
  21	  84
  21	  85
  21	  88
  21	  89
  21	  91
  21	  92
  21	  95
  21	  96
  21	  98
  21	 100
  21	 101
  21	 102
  21	 103
  21	 104
  21	 105
  21	 106
  21	 107
  21	 109
  21	 111
  21	 114
  21	 117
  22	  25
  22	  26
  22	  29
  22	  32
  22	  35
  22	  38
  22	  40
  22	  41
  22	  43
  22	  51
  22	  53
  22	  55
  22	  56
  22	  59
  22	  60
  22	  61
  22	  64
  22	  67
  22	  68
  22	  69
  22	  72
  22	  76
  22	  77
  22	  78
  22	  84
  22	  85
  22	  86
  22	  90
  22	  93
  22	 100
  22	 101
  22	 103
  22	 104
  22	 107
  22	 108
  22	 110
  22	 111
  22	 114
  22	 117
  23	  26
  23	  30
  23	  34
  23	  35
  23	  37
  23	  38
  23	  39
  23	  40
  23	  41
  23	  44
  23	  45
  23	  46
  23	  47
  23	  51
  23	  52
  23	  53
  23	  54
  23	  55
  23	  57
  23	  58
  23	  63
  23	  64
  23	  65
  23	  66
  23	  67
  23	  68
  23	  69
  23	  72
  23	  74
  23	  75
  23	  76
  23	  81
  23	  82
  23	  84
  23	  86
  23	  87
  23	  89
  23	  90
  23	  91
  23	  96
  23	  97
  23	  99
  23	 100
  23	 102
  23	 106
  23	 108
  23	 109
  23	 110
  23	 111
  23	 114
  23	 115
  24	  25
  24	  27
  24	  30
  24	  32
  24	  33
  24	  34
  24	  35
  24	  36
  24	  41
  24	  42
  24	  47
  24	  51
  24	  52
  24	  53
  24	  58
  24	  59
  24	  60
  24	  61
  24	  63
  24	  64
  24	  66
  24	  68
  24	  69
  24	  71
  24	  72
  24	  73
  24	  75
  24	  81
  24	  83
  24	  86
  24	  87
  24	  90
  24	  92
  24	 100
  24	 102
  24	 105
  24	 107
  24	 109
  24	 113
  24	 115
  25	  26
  25	  28
  25	  29
  25	  30
  25	  31
  25	  34
  25	  37
  25	  39
  25	  40
  25	  41
  25	  45
  25	  46
  25	  47
  25	  48
  25	  49
  25	  51
  25	  56
  25	  58
  25	  59
  25	  60
  25	  61
  25	  62
  25	  65
  25	  67
  25	  68
  25	  70
  25	  72
  25	  73
  25	  81
  25	  82
  25	  85
  25	  86
  25	  89
  25	  90
  25	  91
  25	  94
  25	  99
  25	 100
  25	 101
  25	 102
  25	 105
  25	 107
  25	 110
  25	 111
  25	 114
  26	  28
  26	  29
  26	  30
  26	  33
  26	  36
  26	  38
  26	  39
  26	  41
  26	  50
  26	  51
  26	  54
  26	  63
  26	  68
  26	  70
  26	  71
  26	  79
  26	  84
  26	  85
  26	  87
  26	  94
  26	  95
  26	 101
  26	 104
  26	 105
  26	 112
  26	 117
  26	 118
  26	 119
  27	  32
  27	  33
  27	  34
  27	  35
  27	  39
  27	  46
  27	  49
  27	  50
  27	  55
  27	  59
  27	  60
  27	  62
  27	  64
  27	  65
  27	  68
  27	  70
  27	  74
  27	  77
  27	  78
  27	  80
  27	  82
  27	  83
  27	  84
  27	  85
  27	  90
  27	  91
  27	  98
  27	 100
  27	 101
  27	 104
  27	 105
  27	 107
  27	 109
  27	 110
  27	 113
  27	 116
  27	 117
  28	  29
  28	  30
  28	  31
  28	  34
  28	  35
  28	  42
  28	  43
  28	  47
  28	  50
  28	  53
  28	  54
  28	  59
  28	  62
  28	  70
  28	  72
  28	  76
  28	  79
  28	  84
  28	  85
  28	  86
  28	  89
  28	  90
  28	  91
  28	  94
  28	  95
  28	  97
  28	  98
  28	 109
  28	 110
  28	 113
  29	  33
  29	  37
  29	  38
  29	  41
  29	  42
  29	  44
  29	  47
  29	  48
  29	  49
  29	  50
  29	  52
  29	  53
  29	  56
  29	  59
  29	  62
  29	  63
  29	  66
  29	  71
  29	  76
  29	  77
  29	  78
  29	  79
  29	  82
  29	  83
  29	  86
  29	  88
  29	  91
  29	  92
  29	  93
  29	  94
  29	  95
  29	  96
  29	  99
  29	 102
  29	 104
  29	 108
  29	 109
  29	 110
  29	 111
  29	 113
  29	 116
  29	 117
  30	  35
  30	  36
  30	  37
  30	  38
  30	  39
  30	  43
  30	  46
  30	  50
  30	  51
  30	  53
  30	  56
  30	  58
  30	  59
  30	  65
  30	  66
  30	  69
  30	  72
  30	  75
  30	  77
  30	  81
  30	  83
  30	  85
  30	  89
  30	  93
  30	  95
  30	  99
  30	 100
  30	 101
  30	 102
  30	 103
  30	 106
  30	 107
  30	 108
  30	 109
  30	 114
  30	 115
  31	  32
  31	  33
  31	  35
  31	  36
  31	  40
  31	  42
  31	  46
  31	  49
  31	  51
  31	  54
  31	  55
  31	  56
  31	  60
  31	  62
  31	  63
  31	  67
  31	  70
  31	  73
  31	  74
  31	  76
  31	  77
  31	  79
  31	  80
  31	  82
  31	  84
  31	  85
  31	  86
  31	  90
  31	  91
  31	  93
  31	  94
  31	  97
  31	  98
  31	 103
  31	 104
  31	 105
  31	 113
  31	 115
  31	 116
  32	  35
  32	  37
  32	  38
  32	  39
  32	  41
  32	  42
  32	  45
  32	  46
  32	  51
  32	  54
  32	  60
  32	  62
  32	  63
  32	  65
  32	  67
  32	  72
  32	  73
  32	  76
  32	  78
  32	  85
  32	  90
  32	  95
  32	  97
  32	 100
  32	 101
  32	 103
  32	 104
  32	 109
  32	 111
  32	 112
  32	 115
  33	  36
  33	  37
  33	  40
  33	  41
  33	  43
  33	  48
  33	  51
  33	  52
  33	  54
  33	  55
  33	  58
  33	  62
  33	  63
  33	  67
  33	  69
  33	  74
  33	  77
  33	  79
  33	  80
  33	  83
  33	  85
  33	  89
  33	  94
  33	  96
  33	  97
  33	  98
  33	 100
  33	 102
  33	 104
  33	 105
  33	 106
  33	 107
  33	 109
  33	 112
  33	 113
  33	 115
  33	 116
  34	  35
  34	  37
  34	  38
  34	  39
  34	  41
  34	  43
  34	  46
  34	  48
  34	  49
  34	  50
  34	  52
  34	  53
  34	  54
  34	  55
  34	  57
  34	  61
  34	  63
  34	  66
  34	  71
  34	  72
  34	  74
  34	  78
  34	  84
  34	  85
  34	  86
  34	  87
  34	  88
  34	  90
  34	  91
  34	  94
  34	  98
  34	 100
  34	 106
  34	 107
  34	 108
  34	 109
  34	 110
  34	 111
  34	 113
  34	 114
  34	 115
  34	 117
  34	 119
  35	  39
  35	  40
  35	  41
  35	  42
  35	  43
  35	  47
  35	  48
  35	  53
  35	  62
  35	  65
  35	  66
  35	  68
  35	  69
  35	  72
  35	  78
  35	  82
  35	  83
  35	  85
  35	  86
  35	  89
  35	  90
  35	  92
  35	  95
  35	 100
  35	 101
  35	 103
  35	 104
  35	 105
  35	 110
  35	 111
  35	 113
  35	 117
  35	 118
  36	  39
  36	  40
  36	  45
  36	  46
  36	  48
  36	  49
  36	  53
  36	  55
  36	  56
  36	  59
  36	  60
  36	  62
  36	  64
  36	  69
  36	  71
  36	  79
  36	  80
  36	  83
  36	  87
  36	  88
  36	  89
  36	  91
  36	  95
  36	  97
  36	  98
  36	  99
  36	 101
  36	 107
  36	 119
  37	  38
  37	  39
  37	  40
  37	  41
  37	  42
  37	  51
  37	  54
  37	  55
  37	  56
  37	  58
  37	  60
  37	  62
  37	  63
  37	  74
  37	  75
  37	  76
  37	  77
  37	  79
  37	  87
  37	  88
  37	  90
  37	  93
  37	  96
  37	  99
  37	 101
  37	 102
  37	 104
  37	 105
  37	 107
  37	 110
  37	 111
  37	 112
  37	 114
  37	 118
  37	 119
  38	  40
  38	  42
  38	  43
  38	  45
  38	  46
  38	  49
  38	  50
  38	  57
  38	  59
  38	  61
  38	  64
  38	  67
  38	  69
  38	  70
  38	  73
  38	  74
  38	  75
  38	  78
  38	  85
  38	  93
  38	  95
  38	  96
  38	  97
  38	  98
  38	  99
  38	 100
  38	 103
  38	 104
  38	 106
  38	 107
  38	 110
  38	 113
  38	 114
  38	 118
  38	 119
  39	  40
  39	  48
  39	  56
  39	  59
  39	  60
  39	  63
  39	  65
  39	  67
  39	  73
  39	  75
  39	  76
  39	  77
  39	  81
  39	  87
  39	  88
  39	  93
  39	  94
  39	  96
  39	  99
  39	 100
  39	 101
  39	 103
  39	 104
  39	 110
  39	 112
  39	 114
  39	 116
  39	 117
  39	 119
  40	  41
  40	  46
  40	  49
  40	  51
  40	  52
  40	  53
  40	  56
  40	  57
  40	  59
  40	  67
  40	  69
  40	  72
  40	  73
  40	  76
  40	  78
  40	  79
  40	  80
  40	  82
  40	  84
  40	  87
  40	  90
  40	  91
  40	  94
  40	  95
  40	  96
  40	 100
  40	 103
  40	 104
  40	 106
  40	 109
  40	 110
  40	 111
  40	 115
  40	 116
  40	 118
  40	 119
  41	  45
  41	  46
  41	  49
  41	  54
  41	  62
  41	  63
  41	  65
  41	  68
  41	  71
  41	  73
  41	  74
  41	  76
  41	  78
  41	  80
  41	  81
  41	  83
  41	  86
  41	  87
  41	  90
  41	  91
  41	  95
  41	  96
  41	  97
  41	  99
  41	 102
  41	 105
  41	 108
  41	 109
  41	 110
  41	 111
  41	 112
  41	 113
  41	 115
  41	 116
  41	 119
  42	  43
  42	  44
  42	  47
  42	  50
  42	  55
  42	  60
  42	  61
  42	  65
  42	  67
  42	  68
  42	  70
  42	  71
  42	  72
  42	  76
  42	  78
  42	  81
  42	  85
  42	  89
  42	  90
  42	  91
  42	  92
  42	  95
  42	  96
  42	  98
  42	  99
  42	 100
  42	 104
  42	 110
  42	 111
  42	 112
  42	 113
  42	 114
  43	  44
  43	  50
  43	  54
  43	  55
  43	  57
  43	  59
  43	  60
  43	  64
  43	  65
  43	  72
  43	  73
  43	  74
  43	  75
  43	  79
  43	  81
  43	  82
  43	  84
  43	  87
  43	  92
  43	  95
  43	  97
  43	  98
  43	 101
  43	 103
  43	 108
  43	 109
  43	 112
  43	 113
  43	 116
  43	 117
  43	 119
  44	  47
  44	  48
  44	  49
  44	  53
  44	  56
  44	  58
  44	  61
  44	  66
  44	  69
  44	  70
  44	  72
  44	  74
  44	  80
  44	  84
  44	  85
  44	  90
  44	  93
  44	  96
  44	  98
  44	 102
  44	 105
  44	 109
  44	 113
  44	 115
  44	 116
  44	 117
  44	 119
  45	  48
  45	  51
  45	  53
  45	  58
  45	  61
  45	  62
  45	  65
  45	  69
  45	  70
  45	  72
  45	  76
  45	  79
  45	  80
  45	  82
  45	  84
  45	  85
  45	  97
  45	 103
  45	 104
  45	 105
  45	 109
  45	 115
  45	 117
  45	 118
  45	 119
  46	  50
  46	  51
  46	  57
  46	  61
  46	  62
  46	  63
  46	  64
  46	  68
  46	  69
  46	  70
  46	  71
  46	  72
  46	  73
  46	  76
  46	  82
  46	  83
  46	  92
  46	  95
  46	  96
  46	  98
  46	  99
  46	 101
  46	 103
  46	 107
  46	 108
  46	 110
  46	 115
  46	 116
  46	 117
  46	 118
  47	  51
  47	  53
  47	  54
  47	  57
  47	  62
  47	  68
  47	  75
  47	  76
  47	  77
  47	  78
  47	  81
  47	  82
  47	  83
  47	  85
  47	  87
  47	  93
  47	  95
  47	  96
  47	  97
  47	 101
  47	 104
  47	 106
  47	 112
  47	 113
  47	 114
  47	 115
  47	 116
  47	 117
  48	  50
  48	  56
  48	  58
  48	  59
  48	  63
  48	  64
  48	  65
  48	  66
  48	  69
  48	  71
  48	  72
  48	  74
  48	  75
  48	  77
  48	  78
  48	  79
  48	  88
  48	  91
  48	  97
  48	  98
  48	 100
  48	 101
  48	 104
  48	 105
  48	 106
  48	 107
  48	 108
  48	 109
  48	 112
  48	 114
  48	 119
  49	  52
  49	  55
  49	  57
  49	  60
  49	  61
  49	  63
  49	  64
  49	  69
  49	  74
  49	  76
  49	  79
  49	  80
  49	  83
  49	  84
  49	  86
  49	  87
  49	  89
  49	  93
  49	  94
  49	  97
  49	  99
  49	 100
  49	 104
  49	 108
  49	 111
  49	 113
  49	 115
  49	 116
  49	 119
  50	  54
  50	  56
  50	  57
  50	  58
  50	  61
  50	  62
  50	  65
  50	  66
  50	  68
  50	  73
  50	  77
  50	  78
  50	  79
  50	  80
  50	  82
  50	  83
  50	  85
  50	  88
  50	  90
  50	  97
  50	  99
  50	 100
  50	 101
  50	 102
  50	 105
  50	 108
  50	 111
  50	 112
  50	 113
  50	 116
  50	 118
  51	  52
  51	  54
  51	  55
  51	  56
  51	  57
  51	  60
  51	  61
  51	  65
  51	  66
  51	  67
  51	  68
  51	  79
  51	  80
  51	  81
  51	  82
  51	  83
  51	  88
  51	  89
  51	  91
  51	  93
  51	  94
  51	  97
  51	  98
  51	  99
  51	 100
  51	 102
  51	 104
  51	 105
  51	 106
  51	 107
  51	 109
  51	 111
  51	 113
  51	 114
  51	 116
  51	 117
  52	  54
  52	  60
  52	  63
  52	  64
  52	  72
  52	  75
  52	  79
  52	  80
  52	  82
  52	  85
  52	  86
  52	  89
  52	  90
  52	  94
  52	  97
  52	 101
  52	 103
  52	 107
  52	 111
  52	 112
  52	 113
  52	 114
  52	 115
  52	 118
  52	 119
  53	  54
  53	  55
  53	  57
  53	  62
  53	  66
  53	  67
  53	  72
  53	  74
  53	  77
  53	  78
  53	  79
  53	  83
  53	  84
  53	  85
  53	  88
  53	  89
  53	  90
  53	  94
  53	  96
  53	 100
  53	 101
  53	 105
  53	 112
  53	 114
  53	 117
  53	 118
  54	  55
  54	  59
  54	  64
  54	  66
  54	  71
  54	  73
  54	  74
  54	  81
  54	  82
  54	  84
  54	  89
  54	  92
  54	  93
  54	  98
  54	  99
  54	 102
  54	 110
  54	 111
  54	 113
  54	 114
  54	 116
  54	 117
  54	 119
  55	  56
  55	  62
  55	  63
  55	  73
  55	  77
  55	  79
  55	  80
  55	  83
  55	  88
  55	 103
  55	 108
  55	 110
  55	 118
  55	 119
  56	  58
  56	  62
  56	  63
  56	  66
  56	  68
  56	  76
  56	  80
  56	  82
  56	  85
  56	  88
  56	  90
  56	  96
  56	  98
  56	  99
  56	 102
  56	 106
  56	 109
  56	 110
  56	 114
  56	 116
  56	 117
  57	  60
  57	  64
  57	  66
  57	  68
  57	  71
  57	  76
  57	  83
  57	  87
  57	  89
  57	  90
  57	  92
  57	  94
  57	  96
  57	  97
  57	  98
  57	 107
  57	 108
  57	 109
  57	 110
  57	 116
  57	 118
  57	 119
  58	  61
  58	  64
  58	  66
  58	  71
  58	  72
  58	  74
  58	  81
  58	  85
  58	  86
  58	  89
  58	  90
  58	  91
  58	  94
  58	  99
  58	 100
  58	 107
  58	 108
  58	 113
  58	 114
  58	 117
  58	 119
  59	  60
  59	  69
  59	  82
  59	  85
  59	  93
  59	  94
  59	  99
  59	 102
  59	 103
  59	 104
  59	 108
  59	 109
  59	 111
  59	 116
  60	  64
  60	  65
  60	  67
  60	  71
  60	  72
  60	  74
  60	  75
  60	  77
  60	  83
  60	  84
  60	  88
  60	  90
  60	  91
  60	  96
  60	  98
  60	 102
  60	 103
  60	 104
  60	 105
  60	 110
  60	 111
  60	 112
  60	 116
  60	 119
  61	  63
  61	  64
  61	  65
  61	  66
  61	  68
  61	  71
  61	  76
  61	  78
  61	  80
  61	  81
  61	  82
  61	  83
  61	  84
  61	  88
  61	  89
  61	  92
  61	  93
  61	  95
  61	  96
  61	  97
  61	  98
  61	  99
  61	 101
  61	 102
  61	 105
  61	 108
  61	 111
  61	 118
  62	  64
  62	  66
  62	  68
  62	  69
  62	  70
  62	  71
  62	  83
  62	  89
  62	  92
  62	  95
  62	  99
  62	 101
  62	 102
  62	 103
  62	 107
  62	 112
  62	 116
  62	 117
  62	 118
  63	  70
  63	  81
  63	  82
  63	  97
  63	 102
  63	 105
  63	 106
  63	 107
  63	 108
  63	 110
  63	 111
  63	 113
  63	 115
  64	  67
  64	  68
  64	  76
  64	  80
  64	  81
  64	  82
  64	  83
  64	  84
  64	  85
  64	  88
  64	  89
  64	  91
  64	  92
  64	  94
  64	  95
  64	 100
  64	 103
  64	 105
  64	 109
  64	 110
  64	 116
  64	 117
  64	 119
  65	  70
  65	  72
  65	  73
  65	  78
  65	  80
  65	  83
  65	  89
  65	  90
  65	  91
  65	  94
  65	  95
  65	  96
  65	  99
  65	 100
  65	 101
  65	 102
  65	 104
  65	 106
  65	 109
  65	 112
  65	 114
  65	 118
  65	 119
  66	  67
  66	  68
  66	  69
  66	  70
  66	  71
  66	  73
  66	  75
  66	  78
  66	  79
  66	  80
  66	  81
  66	  87
  66	  91
  66	  92
  66	  93
  66	  95
  66	 104
  66	 107
  66	 109
  66	 110
  66	 111
  66	 114
  66	 117
  66	 118
  66	 119
  67	  68
  67	  71
  67	  72
  67	  77
  67	  78
  67	  80
  67	  81
  67	  82
  67	  85
  67	  89
  67	  90
  67	  91
  67	  98
  67	 104
  67	 105
  67	 107
  67	 110
  67	 111
  67	 112
  67	 114
  67	 115
  68	  70
  68	  74
  68	  75
  68	  77
  68	  80
  68	  81
  68	  83
  68	  84
  68	  85
  68	  87
  68	  89
  68	  90
  68	  91
  68	  92
  68	  95
  68	  97
  68	 105
  68	 109
  68	 111
  68	 115
  68	 117
  69	  72
  69	  75
  69	  78
  69	  80
  69	  84
  69	  87
  69	  88
  69	  90
  69	  94
  69	  95
  69	  98
  69	 100
  69	 102
  69	 103
  69	 106
  69	 108
  69	 115
  69	 116
  69	 118
  69	 119
  70	  72
  70	  73
  70	  78
  70	  79
  70	  80
  70	  81
  70	  84
  70	  92
  70	  94
  70	  95
  70	  97
  70	  98
  70	  99
  70	 101
  70	 103
  70	 104
  70	 111
  70	 114
  70	 115
  70	 117
  70	 119
  71	  72
  71	  78
  71	  80
  71	  81
  71	  82
  71	  87
  71	  88
  71	  93
  71	  94
  71	  95
  71	 102
  71	 104
  71	 107
  71	 108
  71	 109
  71	 110
  71	 111
  71	 114
  71	 115
  72	  73
  72	  75
  72	  79
  72	  94
  72	 104
  72	 105
  72	 109
  72	 113
  72	 115
  72	 119
  73	  75
  73	  78
  73	  82
  73	  83
  73	  84
  73	  86
  73	  88
  73	  89
  73	  92
  73	  94
  73	  95
  73	  96
  73	  98
  73	 101
  73	 102
  73	 103
  73	 104
  73	 111
  73	 112
  73	 114
  74	  76
  74	  77
  74	  78
  74	  79
  74	  80
  74	  81
  74	  83
  74	  85
  74	  86
  74	  88
  74	  91
  74	  93
  74	  95
  74	  99
  74	 101
  74	 105
  74	 107
  74	 108
  74	 112
  74	 113
  74	 114
  74	 115
  74	 118
  75	  78
  75	  79
  75	  80
  75	  88
  75	  89
  75	  91
  75	  92
  75	  93
  75	  94
  75	  97
  75	  99
  75	 101
  75	 102
  75	 106
  75	 108
  75	 110
  75	 112
  75	 115
  75	 117
  76	  77
  76	  80
  76	  82
  76	  83
  76	  88
  76	  91
  76	  94
  76	  95
  76	  96
  76	 100
  76	 102
  76	 104
  76	 105
  76	 108
  76	 110
  76	 112
  76	 114
  76	 118
  77	  78
  77	  79
  77	  80
  77	  84
  77	  86
  77	  88
  77	  91
  77	  94
  77	  95
  77	 100
  77	 101
  77	 106
  77	 108
  77	 109
  77	 111
  77	 112
  77	 113
  77	 117
  78	  79
  78	  85
  78	  86
  78	  88
  78	  89
  78	  91
  78	  92
  78	  94
  78	  95
  78	  96
  78	 100
  78	 101
  78	 102
  78	 105
  78	 106
  78	 114
  78	 117
  78	 118
  79	  81
  79	  83
  79	  84
  79	  85
  79	  86
  79	  93
  79	  97
  79	  98
  79	 100
  79	 101
  79	 103
  79	 105
  79	 107
  79	 112
  79	 113
  79	 115
  79	 117
  79	 119
  80	  81
  80	  82
  80	  83
  80	  85
  80	  86
  80	  89
  80	  91
  80	  94
  80	  96
  80	  98
  80	  99
  80	 100
  80	 103
  80	 104
  80	 107
  80	 109
  80	 110
  80	 111
  80	 113
  80	 116
  81	  82
  81	  86
  81	  88
  81	  91
  81	  93
  81	  97
  81	  98
  81	 103
  81	 104
  81	 105
  81	 107
  81	 108
  81	 109
  81	 114
  81	 115
  82	  83
  82	  86
  82	  87
  82	  89
  82	  93
  82	  94
  82	  95
  82	  97
  82	  99
  82	 103
  82	 104
  82	 109
  82	 110
  82	 113
  82	 119
  83	  88
  83	  93
  83	 100
  83	 101
  83	 105
  83	 106
  83	 107
  83	 108
  83	 110
  83	 111
  83	 114
  84	  87
  84	  93
  84	  95
  84	  96
  84	 100
  84	 101
  84	 103
  84	 105
  84	 109
  84	 110
  84	 111
  84	 115
  85	  89
  85	  90
  85	  94
  85	  96
  85	  99
  85	 101
  85	 107
  85	 108
  85	 113
  85	 116
  85	 117
  85	 118
  85	 119
  86	  88
  86	  90
  86	  92
  86	  93
  86	  94
  86	  95
  86	  98
  86	 101
  86	 102
  86	 103
  86	 105
  86	 106
  86	 107
  86	 108
  86	 109
  86	 113
  86	 114
  86	 116
  86	 117
  86	 118
  86	 119
  87	  88
  87	  90
  87	  93
  87	  94
  87	  95
  87	 101
  87	 102
  87	 103
  87	 104
  87	 105
  87	 107
  87	 108
  87	 111
  87	 113
  87	 114
  87	 117
  87	 118
  87	 119
  88	  91
  88	  93
  88	  94
  88	  95
  88	  98
  88	 101
  88	 107
  88	 108
  88	 115
  88	 117
  89	  94
  89	  96
  89	  98
  89	 106
  89	 110
  89	 112
  89	 113
  89	 115
  89	 117
  89	 118
  89	 119
  90	  93
  90	  94
  90	  95
  90	  96
  90	 107
  90	 111
  90	 113
  90	 115
  90	 116
  91	  93
  91	  94
  91	  96
  91	  98
  91	 100
  91	 102
  91	 103
  91	 106
  91	 107
  91	 112
  92	  94
  92	  98
  92	  99
  92	 101
  92	 102
  92	 103
  92	 105
  92	 108
  92	 112
  92	 115
  93	  95
  93	  96
  93	  98
  93	  99
  93	 102
  93	 104
  93	 108
  93	 110
  93	 111
  93	 113
  93	 115
  93	 119
  94	  95
  94	  98
  94	  99
  94	 104
  94	 106
  94	 107
  94	 109
  94	 110
  94	 113
  94	 114
  94	 115
  94	 119
  95	  96
  95	  97
  95	  99
  95	 103
  95	 105
  95	 107
  95	 112
  95	 114
  95	 117
  95	 118
  95	 119
  96	  97
  96	 100
  96	 101
  96	 104
  96	 106
  96	 107
  96	 109
  96	 110
  96	 115
  96	 119
  97	  99
  97	 105
  97	 112
  97	 113
  97	 114
  98	 100
  98	 102
  98	 109
  98	 111
  98	 112
  98	 117
  98	 118
  99	 102
  99	 104
  99	 106
  99	 108
  99	 109
  99	 117
  99	 118
 100	 103
 100	 107
 100	 108
 100	 109
 100	 111
 100	 112
 100	 113
 100	 116
 101	 102
 101	 103
 101	 105
 101	 110
 101	 111
 101	 118
 102	 105
 102	 106
 102	 107
 102	 111
 102	 116
 103	 104
 103	 106
 103	 107
 103	 108
 103	 109
 103	 113
 103	 117
 103	 119
 104	 109
 104	 110
 104	 115
 104	 117
 105	 107
 105	 109
 105	 113
 106	 111
 106	 113
 106	 115
 106	 118
 107	 108
 107	 109
 107	 113
 107	 117
 108	 109
 108	 111
 108	 116
 109	 110
 109	 113
 110	 114
 110	 117
 110	 118
 111	 113
 111	 119
 112	 115
 112	 116
 112	 117
 113	 114
 115	 118
 115	 119
 116	 117
 116	 119
 117	 118
;
